 200 83 
 72 76 73 92 36 6 72 29 74 35 40 50 
 27 24 56 90 94 60 59 3 46 55 21 18 
 66 66 59 41 99 9 81 30 12 46 66 7 
 97 94 27 40 65 70 57 76 69 80 42 55 
 81 11 53 12 54 78 1 10 57 4 54 22 
 57 75 12 8 47 57 7 11 95 65 34 45 
 31 62 71 69 68 97 44 89 2 7 52 
 33 
 5 9 11 12 13 14 15 16 18 21 23 25 
 27 31 33 35 36 37 43 47 49 50 51 53 
 57 58 61 62 68 70 77 80 83 
 2 
 32 70 
 66 
 1 2 3 4 5 6 8 9 11 12 13 16 
 17 18 19 20 23 24 25 26 29 30 31 32 
 33 35 36 37 38 39 40 41 43 45 47 48 
 49 50 51 52 53 54 56 60 61 62 63 64 
 65 66 67 68 69 70 71 72 73 74 75 76 
 77 78 79 81 82 83 
 52 
 1 2 3 4 7 8 11 13 15 17 18 19 
 21 22 23 24 25 26 29 32 33 34 38 39 
 40 41 43 44 47 48 49 51 54 55 57 59 
 60 63 64 66 67 68 69 71 72 74 75 76 
 78 79 80 82 
 79 
 1 2 3 4 5 6 7 8 9 10 11 13 
 14 15 16 17 18 19 20 21 22 23 24 25 
 26 27 28 29 30 31 33 34 35 36 37 38 
 39 40 41 42 43 44 45 47 48 49 50 51 
 52 53 54 55 56 57 58 59 60 61 62 63 
 64 65 66 67 68 70 71 72 73 74 75 76 
 77 78 79 80 81 82 83 
 44 
 1 4 7 9 10 13 15 16 20 21 23 24 
 25 27 28 29 32 33 34 35 37 38 41 44 
 45 46 47 49 51 52 53 57 60 61 65 67 
 68 69 70 71 76 78 80 83 
 77 
 1 2 3 4 5 6 7 8 9 10 11 12 
 13 14 15 16 17 18 19 20 21 22 23 24 
 27 28 30 31 33 34 35 36 37 38 39 40 
 41 42 43 44 45 46 47 48 49 50 51 52 
 53 54 55 56 57 58 59 60 62 63 64 65 
 66 67 68 69 70 71 72 73 74 76 77 78 
 79 80 81 82 83 
 50 
 1 2 3 6 7 8 9 10 11 14 15 19 
 21 22 24 25 27 30 32 33 35 37 38 40 
 42 43 45 46 47 48 49 50 51 52 55 58 
 59 60 61 63 64 67 70 71 72 75 76 81 
 82 83 
 79 
 1 2 3 4 5 6 7 8 9 10 11 12 
 13 14 15 16 17 18 19 20 21 22 23 24 
 25 26 27 28 29 30 31 32 33 34 35 37 
 38 39 40 41 42 43 44 45 46 48 49 50 
 51 52 53 54 55 57 58 59 60 61 62 63 
 64 65 66 67 68 69 71 72 73 74 75 76 
 77 78 79 80 81 82 83 
 29 
 6 9 20 21 24 25 27 28 30 32 35 36 
 39 40 42 44 48 49 52 53 57 58 63 65 
 69 70 71 82 83 
 76 
 1 2 3 4 5 7 9 10 11 12 13 14 
 15 16 17 18 19 20 21 22 23 24 25 26 
 27 28 29 30 31 32 33 35 36 37 38 39 
 40 41 42 43 44 45 46 47 48 49 50 51 
 52 53 55 56 57 58 59 60 61 63 64 66 
 67 68 69 70 71 72 73 75 76 77 78 79 
 80 81 82 83 
 58 
 1 2 7 8 10 11 13 14 15 16 18 19 
 22 23 24 25 26 28 30 31 33 34 36 40 
 41 42 43 44 45 46 47 48 49 50 51 52 
 53 58 59 61 62 63 65 66 67 68 69 70 
 71 72 75 76 77 79 80 81 82 83 
 62 
 2 4 5 6 8 9 11 12 13 14 16 17 
 19 20 21 22 23 25 28 29 30 31 32 35 
 36 37 40 41 42 43 44 45 46 47 48 50 
 51 53 54 55 56 57 59 60 62 63 64 65 
 66 67 68 69 70 72 73 74 76 78 79 80 
 81 83 
 77 
 1 3 4 5 6 7 8 9 10 11 12 13 
 14 15 16 17 18 19 20 21 22 23 25 26 
 27 28 30 31 33 34 35 36 37 38 39 40 
 41 42 43 44 45 46 47 48 49 50 51 52 
 53 54 55 56 58 59 60 61 62 63 64 65 
 66 67 68 69 70 71 72 73 75 76 77 78 
 79 80 81 82 83 
 12 
 9 16 22 38 41 42 44 45 48 62 66 80 
 50 
 1 2 3 7 8 9 11 12 13 14 15 16 
 17 19 20 22 23 29 30 31 32 33 34 37 
 39 40 41 43 45 47 48 50 51 52 53 59 
 63 65 66 67 68 72 73 74 75 77 79 80 
 81 82 
 39 
 2 3 4 5 6 7 8 10 13 14 17 19 
 23 24 29 36 39 40 45 46 48 51 53 55 
 58 60 63 64 65 66 67 70 71 73 76 77 
 79 81 82 
 66 
 1 2 3 4 5 6 7 8 15 16 17 18 
 19 21 22 25 26 28 29 31 32 33 34 35 
 36 37 39 41 42 43 44 45 46 47 49 51 
 52 53 54 56 57 58 59 60 61 62 63 64 
 65 66 67 68 69 70 72 73 74 75 76 77 
 78 79 80 81 82 83 
 29 
 2 4 8 10 12 13 14 17 19 24 35 36 
 37 38 40 41 42 47 51 52 54 56 57 69 
 71 74 77 79 81 
 33 
 1 3 5 6 7 10 12 14 15 21 25 30 
 39 41 43 44 46 48 49 52 53 55 56 59 
 60 62 63 69 70 77 78 80 83 
 62 
 1 2 3 4 5 6 7 8 9 10 11 12 
 13 14 16 17 18 20 22 23 24 25 26 27 
 29 30 31 32 33 34 38 39 40 41 43 45 
 46 47 48 49 50 51 52 53 57 58 59 60 
 61 63 65 67 68 69 70 71 74 76 77 79 
 81 83 
 33 
 5 6 7 11 12 19 20 21 22 30 31 33 
 35 37 40 44 47 48 49 50 51 53 56 59 
 60 61 62 64 68 74 75 77 81 
 61 
 1 2 3 4 5 6 7 10 11 12 13 14 
 15 16 18 19 20 21 22 23 24 25 26 27 
 28 30 31 33 35 38 39 42 43 46 47 48 
 49 50 51 54 56 57 58 59 60 61 62 63 
 64 65 67 69 70 71 74 76 77 78 80 81 
 82 
 82 
 1 2 3 4 5 6 7 8 9 10 11 12 
 13 14 15 16 17 18 19 20 21 22 23 24 
 25 26 27 28 29 30 31 32 33 34 35 36 
 37 38 39 40 41 42 43 44 45 46 47 48 
 49 50 51 52 53 54 55 56 58 59 60 61 
 62 63 64 65 66 67 68 69 70 71 72 73 
 74 75 76 77 78 79 80 81 82 83 
 32 
 3 4 6 9 11 13 16 17 21 26 28 30 
 32 36 37 39 40 42 44 45 46 48 52 53 
 55 58 61 63 66 70 71 81 
 50 
 1 3 4 6 7 9 10 12 14 15 16 17 
 19 20 22 23 24 27 30 31 33 34 35 36 
 37 39 40 42 44 47 48 49 51 52 53 54 
 56 57 58 59 62 64 66 68 69 71 73 75 
 78 82 
 81 
 1 2 3 4 5 6 7 8 9 10 11 12 
 13 14 15 16 17 18 19 20 21 22 23 24 
 25 26 27 29 30 31 32 34 35 36 37 38 
 39 40 41 42 43 44 45 46 47 48 49 50 
 51 52 53 54 55 56 57 58 59 60 61 62 
 63 64 65 66 67 68 69 70 71 72 73 74 
 75 76 77 78 79 80 81 82 83 
 68 
 2 5 6 9 10 11 12 13 14 16 17 18 
 19 21 22 23 24 25 26 29 30 31 32 33 
 34 35 36 37 38 40 42 43 45 46 47 48 
 49 50 53 54 55 56 57 58 59 60 61 62 
 63 64 65 66 67 68 69 70 71 72 73 74 
 75 77 78 79 80 81 82 83 
 4 
 15 21 63 71 
 58 
 1 5 7 8 13 14 15 17 18 21 22 23 
 24 26 27 28 29 30 31 32 33 34 35 36 
 37 38 40 41 42 43 46 49 50 51 54 55 
 56 57 58 59 60 61 62 63 66 67 68 69 
 70 71 72 73 74 75 76 77 78 80 
 74 
 1 2 3 4 5 6 7 8 9 10 11 12 
 13 14 16 17 18 19 20 21 22 23 25 26 
 27 28 30 31 32 33 34 35 36 37 38 39 
 40 41 42 43 44 45 47 48 49 52 53 54 
 56 57 58 59 60 61 62 63 64 66 67 69 
 70 71 72 73 74 75 76 77 78 79 80 81 
 82 83 
 37 
 1 4 7 8 10 11 12 24 25 28 29 30 
 31 39 44 45 48 50 51 52 54 56 57 59 
 60 62 63 64 66 67 68 73 75 76 80 81 
 82 
 10 
 3 10 25 36 41 42 45 47 74 75 
 34 
 3 8 9 11 13 14 16 17 18 22 25 28 
 32 34 36 37 38 41 42 43 44 45 46 48 
 50 52 54 59 62 71 72 74 77 82 
 17 
 5 15 26 33 34 47 58 60 61 63 66 67 
 72 73 76 79 80 
 23 
 1 2 7 10 14 21 24 29 36 37 42 44 
 49 50 58 62 63 67 68 77 78 79 83 
 2 
 10 16 
 4 
 7 13 17 62 
 44 
 1 2 3 4 6 8 10 12 13 14 18 22 
 24 25 28 32 33 36 38 41 43 46 47 48 
 51 56 57 58 59 60 61 66 67 69 71 72 
 73 75 77 78 79 80 81 83 
 74 
 1 2 3 6 7 8 9 10 11 13 14 15 
 16 17 18 19 20 21 22 23 25 26 27 28 
 29 30 31 32 33 34 35 36 37 39 40 41 
 42 43 44 45 46 47 48 49 50 51 53 54 
 55 56 57 59 60 62 63 64 65 66 67 68 
 69 70 71 72 73 74 75 76 77 78 79 80 
 82 83 
 31 
 1 10 15 16 18 19 20 28 34 36 37 38 
 39 42 46 47 51 54 55 57 58 63 64 65 
 68 70 72 73 78 82 83 
 50 
 4 6 8 12 14 15 16 17 18 19 20 21 
 26 28 29 30 34 35 37 38 42 43 45 46 
 48 50 51 52 54 55 56 57 59 60 61 62 
 63 64 66 69 70 71 74 75 77 78 79 80 
 81 82 
 26 
 1 2 3 10 13 14 18 22 25 26 27 29 
 31 36 40 41 42 43 50 56 58 61 68 70 
 79 81 
 28 
 2 3 4 5 6 7 13 14 15 19 24 27 
 38 40 41 45 50 51 54 63 68 69 72 74 
 75 76 77 82 
 42 
 1 3 4 5 7 9 10 15 17 18 21 25 
 26 28 29 30 31 32 34 35 40 43 48 50 
 51 53 54 55 56 57 59 61 63 64 67 68 
 72 73 76 81 82 83 
 29 
 3 6 9 10 11 16 17 18 19 21 23 25 
 27 32 33 40 44 47 48 52 55 57 58 59 
 60 61 72 76 83 
 62 
 2 3 4 5 6 7 9 10 11 14 17 18 
 19 20 22 23 24 27 28 29 30 31 32 34 
 35 36 37 39 40 41 44 45 46 47 48 50 
 51 52 53 54 57 60 64 65 66 67 68 69 
 70 71 72 73 74 75 76 77 78 79 80 81 
 82 83 
 42 
 1 3 4 5 8 11 16 17 20 21 22 23 
 24 28 29 30 32 33 36 37 38 39 41 45 
 48 51 52 54 56 57 59 66 67 69 70 74 
 75 76 78 80 81 82 
 25 
 1 3 5 7 17 21 24 25 27 30 36 38 
 51 52 53 56 59 61 68 69 72 78 79 81 
 83 
 16 
 12 13 16 23 25 37 38 40 45 46 48 53 
 69 71 76 80 
 54 
 1 2 5 6 8 9 14 15 16 17 18 20 
 21 23 24 26 27 29 31 32 33 35 36 37 
 38 39 40 41 42 44 46 47 50 51 55 56 
 57 59 60 61 62 63 64 67 69 70 71 74 
 76 77 79 81 82 83 
 73 
 1 2 3 4 5 6 7 8 9 10 11 12 
 13 14 15 16 17 18 19 20 21 23 26 27 
 28 29 30 31 32 34 35 36 38 39 40 41 
 42 43 44 45 46 47 48 49 50 51 52 53 
 55 56 57 58 59 60 61 63 65 66 67 68 
 69 70 71 72 73 74 75 76 78 79 81 82 
 83 
 69 
 1 2 4 5 6 7 8 9 11 12 13 14 
 15 16 17 18 19 20 21 22 23 24 26 27 
 28 30 31 33 34 35 36 37 38 39 40 41 
 42 43 45 47 48 49 50 51 52 53 54 56 
 57 58 59 63 64 65 66 67 68 69 70 72 
 74 75 76 78 79 80 81 82 83 
 49 
 1 4 6 7 8 12 14 16 17 19 22 24 
 25 27 29 30 31 32 33 37 39 40 43 44 
 45 46 47 48 49 54 55 56 57 58 60 62 
 64 65 67 68 70 71 75 76 77 78 81 82 
 83 
 82 
 1 2 3 4 5 6 7 8 9 10 11 12 
 13 14 15 16 17 18 19 20 21 22 23 24 
 25 26 27 28 29 30 31 32 33 34 35 36 
 37 38 39 40 41 42 44 45 46 47 48 49 
 50 51 52 53 54 55 56 57 58 59 60 61 
 62 63 64 65 66 67 68 69 70 71 72 73 
 74 75 76 77 78 79 80 81 82 83 
 45 
 2 3 4 6 7 8 10 12 13 14 15 16 
 18 20 22 27 30 33 37 38 39 40 42 49 
 51 52 53 54 55 57 60 61 62 64 65 66 
 68 74 75 76 77 78 81 82 83 
 35 
 2 3 6 9 14 18 19 21 23 32 34 38 
 40 41 44 45 47 49 50 56 58 61 62 63 
 64 67 68 69 70 71 73 74 75 77 82 
 16 
 8 20 24 32 38 44 47 53 55 56 57 59 
 68 73 75 80 
 14 
 4 9 17 18 24 33 36 37 46 61 67 69 
 77 79 
 61 
 1 2 4 7 8 11 12 13 14 15 17 19 
 21 22 23 24 25 26 27 28 29 30 31 34 
 37 38 39 40 41 42 43 44 46 48 49 51 
 53 54 55 56 57 58 59 61 63 65 66 69 
 70 71 72 73 74 76 77 78 79 80 81 82 
 83 
 36 
 3 5 7 9 10 14 25 26 28 29 30 31 
 33 34 41 42 43 45 46 48 49 52 53 54 
 56 59 60 63 64 65 69 71 75 76 82 83 
 44 
 1 2 3 4 5 6 7 8 9 10 11 12 
 15 18 19 25 26 27 33 34 39 40 41 43 
 44 46 47 49 53 54 55 56 57 58 61 63 
 65 67 68 72 76 77 79 81 
 34 
 3 5 8 9 10 14 20 21 22 23 26 29 
 31 32 33 37 38 41 47 48 50 52 54 55 
 60 61 65 67 68 72 74 75 80 83 
 62 
 1 2 3 5 6 7 9 10 11 14 15 16 
 17 18 19 20 23 24 26 27 28 29 33 34 
 35 39 40 41 43 44 45 46 48 49 50 51 
 52 53 54 55 56 57 58 59 60 61 62 63 
 64 65 66 67 68 69 70 73 75 77 79 81 
 82 83 
 30 
 6 9 10 12 14 18 21 22 27 28 29 32 
 34 39 43 49 53 57 58 59 61 65 70 72 
 73 75 77 79 82 83 
 40 
 2 6 7 8 10 12 13 15 16 18 22 24 
 26 28 30 31 33 35 37 38 44 45 49 53 
 54 57 59 60 65 66 68 73 74 75 77 78 
 79 81 82 83 
 17 
 2 13 15 22 27 31 32 38 41 47 49 58 
 62 69 76 78 81 
 11 
 4 11 42 46 47 52 55 56 59 67 77 
 53 
 1 2 3 4 5 6 8 9 10 11 12 13 
 15 16 17 19 20 21 23 24 25 26 27 28 
 30 32 36 37 38 40 44 45 46 47 49 50 
 51 52 55 57 64 66 67 68 70 71 73 75 
 78 80 81 82 83 
 77 
 1 2 3 4 5 6 7 8 9 10 12 13 
 14 15 16 17 18 19 20 21 22 23 24 25 
 26 27 28 29 30 31 32 33 34 35 36 37 
 38 39 40 41 43 45 46 47 48 49 50 52 
 53 54 55 56 58 59 60 61 62 63 64 65 
 66 67 68 69 70 71 72 73 74 75 76 77 
 78 79 80 82 83 
 74 
 1 2 3 4 5 6 7 8 9 10 11 12 
 13 14 15 16 17 18 19 20 21 23 24 25 
 27 28 29 30 31 32 33 35 37 38 39 40 
 41 42 43 44 45 46 47 48 49 51 52 53 
 54 55 56 57 58 59 60 61 62 63 65 68 
 69 71 72 73 74 75 76 77 78 79 80 81 
 82 83 
 47 
 1 2 4 6 7 8 11 13 15 17 18 19 
 20 21 22 23 24 25 26 29 31 33 36 38 
 45 48 49 51 53 54 56 58 59 60 61 64 
 65 66 67 68 70 71 75 79 81 82 83 
 6 
 13 39 42 49 62 67 
 6 
 14 27 39 41 49 79 
 63 
 2 3 4 5 6 7 8 10 11 13 15 16 
 17 19 20 21 22 23 24 25 29 30 32 33 
 36 37 38 39 40 41 42 43 44 45 48 49 
 50 51 52 53 54 55 57 58 59 60 63 65 
 66 68 69 71 72 73 74 75 76 77 78 79 
 80 82 83 
 11 
 5 13 23 28 34 35 47 48 54 65 66 
 74 
 1 2 3 4 5 6 7 8 9 10 11 12 
 13 14 15 17 18 19 20 22 23 24 25 26 
 27 28 29 30 31 32 33 34 35 36 38 40 
 41 42 43 44 45 46 47 48 49 50 51 52 
 53 55 56 58 59 60 61 62 63 64 65 66 
 68 69 70 71 73 74 75 76 77 78 79 81 
 82 83 
 32 
 1 2 10 12 14 15 17 22 27 29 30 31 
 33 37 38 39 41 44 50 52 59 61 62 63 
 64 66 67 68 70 71 75 79 
 82 
 1 2 3 4 5 6 7 8 9 10 11 13 
 14 15 16 17 18 19 20 21 22 23 24 25 
 26 27 28 29 30 31 32 33 34 35 36 37 
 38 39 40 41 42 43 44 45 46 47 48 49 
 50 51 52 53 54 55 56 57 58 59 60 61 
 62 63 64 65 66 67 68 69 70 71 72 73 
 74 75 76 77 78 79 80 81 82 83 
 54 
 1 4 5 6 8 9 12 13 14 15 16 17 
 18 21 22 23 24 25 27 29 30 32 33 36 
 38 42 43 45 46 49 50 51 54 55 56 58 
 59 60 61 62 65 66 68 69 70 71 74 75 
 76 78 79 81 82 83 
 6 
 2 8 22 35 39 50 
 76 
 3 4 5 6 7 8 9 11 12 13 14 15 
 16 17 18 19 20 21 22 23 24 25 26 27 
 28 29 30 31 32 33 34 35 36 37 38 39 
 40 41 42 43 44 45 46 48 49 50 51 52 
 53 54 55 56 57 58 60 61 62 63 64 65 
 68 69 70 71 72 73 74 75 76 77 78 79 
 80 81 82 83 
 55 
 3 5 6 7 9 10 11 12 13 16 17 18 
 19 22 23 24 26 27 28 29 30 31 32 34 
 36 38 39 40 41 44 45 46 47 48 49 50 
 52 53 55 58 59 60 62 63 66 69 71 72 
 73 74 76 78 79 81 83 
 14 
 3 10 13 15 26 28 31 49 53 56 65 70 
 73 77 
 32 
 5 6 9 11 12 14 16 17 18 19 20 21 
 23 24 25 26 27 35 39 41 45 47 51 55 
 64 65 69 73 75 76 80 82 
 15 
 1 6 9 26 32 37 42 44 46 49 58 60 
 73 75 78 
 54 
 1 2 4 7 8 9 11 12 13 14 15 16 
 17 19 22 24 25 26 27 28 31 32 33 34 
 35 39 40 41 42 43 45 49 50 51 53 56 
 58 59 60 61 62 64 65 66 68 69 70 71 
 74 75 76 77 81 82 
 63 
 1 2 3 4 6 8 9 10 11 13 14 15 
 16 17 18 19 21 22 23 24 25 27 29 30 
 32 33 34 35 37 38 39 40 41 44 45 47 
 48 49 50 51 52 53 54 55 56 57 58 59 
 60 61 62 63 65 67 68 70 71 72 74 78 
 80 81 83 
 18 
 4 5 8 10 16 17 19 20 21 23 26 42 
 45 53 58 62 68 73 
 17 
 7 16 22 24 28 32 37 40 45 46 57 65 
 68 71 73 75 82 
 47 
 5 8 9 10 11 12 13 14 15 18 23 24 
 25 26 28 29 34 35 36 37 39 41 43 45 
 46 47 48 49 50 51 54 55 56 61 62 65 
 66 69 70 71 72 76 77 78 79 81 82 
 64 
 1 2 4 5 7 9 10 11 12 13 15 16 
 17 19 20 23 24 25 26 29 31 32 34 35 
 36 37 40 41 42 44 45 46 47 48 49 50 
 51 52 53 54 56 57 58 59 60 62 63 64 
 65 66 67 68 69 70 73 74 75 76 78 79 
 80 81 82 83 
 56 
 2 3 4 6 9 10 11 14 15 17 18 19 
 20 21 22 23 24 25 27 28 29 30 31 32 
 36 38 40 42 43 45 46 48 53 54 55 56 
 57 58 59 60 62 63 64 65 67 69 73 74 
 75 77 78 79 80 81 82 83 
 72 
 1 2 3 4 5 6 7 8 9 10 11 13 
 14 17 18 19 21 22 23 24 25 26 27 28 
 30 32 34 35 36 37 38 39 40 42 44 45 
 46 47 48 49 50 51 52 53 54 55 56 57 
 58 59 60 61 62 63 64 65 66 67 68 70 
 71 72 73 74 75 76 77 78 79 80 81 82 
 54 
 2 3 4 5 7 9 11 12 13 17 18 19 
 20 22 23 24 28 29 30 31 33 34 35 37 
 38 39 43 44 46 48 50 55 56 57 60 61 
 62 64 65 66 67 68 69 71 72 74 75 76 
 78 79 80 81 82 83 
 35 
 3 4 7 12 15 23 25 26 28 30 31 32 
 33 34 36 37 38 39 41 42 43 46 50 53 
 54 57 58 60 62 66 67 68 72 77 78 
 52 
 2 4 5 7 9 11 12 13 14 15 19 21 
 23 24 25 26 31 32 34 37 38 40 43 44 
 47 48 49 50 51 52 53 54 56 57 58 59 
 64 66 67 69 70 71 72 73 74 75 77 78 
 79 80 81 82 
 17 
 6 8 9 14 27 28 31 37 39 40 41 58 
 67 69 78 80 83 
 53 
 1 2 3 5 8 10 12 13 14 15 16 17 
 18 19 20 23 24 25 26 27 28 31 32 33 
 34 37 38 39 40 42 44 50 51 52 53 56 
 59 60 61 62 64 66 67 68 69 71 72 73 
 78 79 80 81 83 
 71 
 1 2 4 5 6 7 8 9 10 11 12 13 
 14 15 16 17 18 20 21 22 23 24 25 26 
 27 28 29 31 32 33 35 36 37 38 39 41 
 42 43 44 45 46 47 48 49 52 53 54 56 
 58 59 60 61 62 63 64 65 66 67 68 70 
 71 73 74 75 76 77 78 79 80 82 83 
 49 
 3 4 5 9 10 12 13 15 17 18 19 20 
 23 25 29 31 32 33 35 37 38 39 41 42 
 43 45 47 48 49 50 52 56 57 59 61 62 
 65 68 69 70 71 72 73 74 76 77 80 82 
 83 
 69 
 1 2 4 6 7 8 10 11 12 13 14 15 
 17 18 19 20 21 22 23 24 25 26 27 28 
 29 31 32 33 34 35 36 37 38 39 40 41 
 42 43 44 45 46 47 48 50 51 53 54 55 
 56 57 58 59 61 62 63 64 65 66 67 68 
 70 71 73 76 77 78 80 82 83 
 24 
 1 7 12 19 21 25 26 29 34 40 41 48 
 51 53 54 59 64 66 67 70 72 76 77 83 
 4 
 39 42 48 81 
 70 
 1 2 3 4 5 6 7 8 10 11 12 13 
 15 16 19 20 22 23 24 25 26 27 28 29 
 30 31 32 33 34 35 36 37 38 39 40 41 
 42 43 44 45 47 48 49 50 51 52 53 54 
 55 56 57 58 59 60 62 63 65 67 68 69 
 70 71 72 73 75 76 77 79 80 82 
 34 
 6 8 9 10 12 17 19 21 22 24 25 27 
 28 29 32 34 38 39 41 42 44 48 49 54 
 56 58 59 61 65 66 74 75 80 82 
 55 
 1 3 4 5 6 7 8 9 13 15 16 17 
 19 20 24 25 26 30 31 32 33 34 35 36 
 37 39 40 41 45 47 48 49 50 51 52 53 
 54 59 62 63 64 65 66 67 70 73 74 75 
 77 78 79 80 81 82 83 
 76 
 1 2 3 5 6 7 8 9 10 11 12 13 
 14 15 16 19 20 21 22 23 24 25 26 27 
 28 29 30 31 32 33 34 35 36 37 38 39 
 40 41 42 43 44 45 47 48 50 51 52 54 
 55 56 57 58 59 60 61 62 63 64 65 66 
 67 68 69 70 71 72 73 74 75 77 78 79 
 80 81 82 83 
 65 
 1 2 3 4 5 6 8 10 11 13 14 16 
 17 20 21 22 23 24 25 26 27 30 31 32 
 33 34 35 36 39 40 41 42 43 44 45 46 
 47 48 49 50 51 52 53 54 55 56 58 61 
 62 63 65 66 67 69 70 71 73 74 75 76 
 77 78 80 81 82 
 70 
 1 2 3 4 5 6 8 9 10 11 12 13 
 14 15 16 17 18 19 21 22 23 24 25 27 
 28 29 30 32 33 34 36 37 38 39 40 41 
 42 43 45 46 47 48 49 50 51 54 57 58 
 59 60 61 62 63 64 66 67 68 69 70 71 
 72 73 75 76 77 78 79 80 81 82 
 15 
 1 2 7 15 18 19 22 25 34 35 40 45 
 57 72 78 
 65 
 2 3 4 5 6 7 9 10 11 12 13 15 
 16 17 18 19 21 23 24 26 27 28 29 30 
 31 32 33 34 35 37 39 40 41 43 44 45 
 47 48 49 50 51 54 56 58 59 60 61 62 
 63 64 65 66 67 68 69 70 72 73 75 76 
 79 80 81 82 83 
 63 
 2 3 5 8 9 10 11 12 14 15 17 18 
 20 21 23 24 25 26 27 28 29 33 34 35 
 36 37 38 39 40 43 44 45 46 47 48 49 
 51 52 53 54 55 56 57 59 60 62 63 64 
 65 66 68 69 70 73 74 75 77 78 79 80 
 81 82 83 
 68 
 1 2 3 5 6 7 9 10 11 12 13 14 
 15 16 17 18 19 20 22 23 24 25 26 28 
 29 30 31 33 34 35 38 39 40 41 43 44 
 45 46 48 49 50 51 52 54 55 56 57 58 
 59 60 61 62 63 65 66 68 69 70 71 72 
 73 74 75 77 80 81 82 83 
 43 
 3 4 5 6 10 11 12 13 18 19 20 21 
 22 23 24 25 26 30 32 33 34 35 36 39 
 41 43 46 48 49 51 53 54 55 56 57 58 
 66 67 68 72 77 80 81 
 68 
 1 2 4 6 7 8 9 11 12 14 15 16 
 17 18 19 20 21 22 23 24 25 26 27 29 
 32 33 34 35 36 37 38 39 41 44 45 46 
 47 48 49 50 51 52 53 54 55 56 57 58 
 59 60 62 63 64 66 67 68 69 70 71 72 
 73 76 77 78 79 80 82 83 
 69 
 1 2 3 4 5 6 7 8 9 10 11 12 
 14 16 17 22 23 24 25 27 28 30 31 32 
 33 34 35 36 38 39 40 41 42 43 44 45 
 46 47 50 51 52 53 54 55 56 57 58 59 
 60 61 62 63 64 65 66 67 68 71 72 73 
 75 76 77 78 79 80 81 82 83 
 69 
 2 3 4 6 7 8 9 10 11 12 15 16 
 17 18 19 21 23 24 25 26 27 28 29 30 
 32 33 34 35 36 37 38 39 40 42 43 44 
 46 47 48 49 50 51 52 53 55 56 57 58 
 59 62 63 65 66 67 68 69 70 71 72 73 
 74 75 77 78 79 80 81 82 83 
 17 
 1 16 24 27 29 30 31 38 39 43 46 56 
 60 63 64 66 67 
 25 
 5 11 15 16 21 24 29 31 32 33 37 39 
 40 44 47 48 50 51 53 55 57 60 64 68 
 72 
 76 
 1 2 3 4 5 6 7 8 9 10 11 12 
 15 16 17 18 19 20 21 22 23 24 25 26 
 27 28 29 30 31 32 33 34 35 36 37 38 
 39 40 41 42 45 46 47 48 49 50 51 52 
 54 55 56 58 59 60 61 62 63 64 65 66 
 67 68 70 71 72 73 74 75 76 77 78 79 
 80 81 82 83 
 79 
 1 2 3 4 5 6 7 8 9 10 11 12 
 13 14 15 16 17 18 19 20 21 22 23 24 
 25 26 27 28 29 30 31 32 33 34 35 36 
 37 38 39 40 41 42 43 44 45 46 47 48 
 49 50 51 52 53 54 55 56 57 58 59 61 
 63 64 65 66 67 68 70 71 72 73 74 75 
 77 78 79 80 81 82 83 
 13 
 3 7 20 26 30 32 42 44 48 60 62 65 
 75 
 10 
 6 11 18 21 33 39 44 62 79 81 
 65 
 1 5 7 8 9 10 11 12 13 14 15 16 
 17 18 19 20 21 22 23 24 25 26 27 28 
 29 30 32 33 36 37 38 39 41 42 43 44 
 45 47 49 50 51 52 53 55 56 57 58 59 
 60 61 62 63 64 65 66 67 70 72 74 75 
 76 77 79 82 83 
 26 
 5 6 7 9 11 15 16 18 20 21 25 30 
 36 39 46 50 52 58 64 67 71 72 73 74 
 76 77 
 21 
 3 4 15 17 25 31 34 36 37 42 50 51 
 53 56 57 60 62 66 69 71 73 
 21 
 3 4 6 7 10 15 16 18 19 29 30 34 
 42 47 52 53 57 66 68 75 82 
 66 
 1 2 3 4 5 6 7 8 9 10 11 12 
 14 16 17 18 19 20 21 23 24 25 26 29 
 31 32 33 34 35 36 37 38 39 40 41 42 
 43 44 46 47 48 49 50 51 52 53 54 55 
 58 60 61 64 65 67 68 69 70 71 72 73 
 75 76 77 80 81 83 
 58 
 1 3 4 6 7 8 9 10 11 12 14 15 
 17 18 19 20 21 22 23 24 25 26 28 29 
 31 33 35 36 37 39 40 41 44 45 47 48 
 49 50 51 53 54 55 57 59 61 64 66 67 
 71 72 74 76 78 79 80 81 82 83 
 57 
 2 4 5 6 7 8 10 11 12 13 17 18 
 19 21 22 26 28 30 31 33 34 35 36 37 
 39 40 41 43 44 45 46 47 48 50 51 52 
 53 54 55 56 57 58 61 62 63 66 67 69 
 70 71 72 73 74 76 81 82 83 
 33 
 1 3 4 6 10 17 18 19 27 29 31 32 
 33 36 45 47 48 49 52 54 55 56 60 62 
 65 66 68 69 71 77 78 79 83 
 21 
 5 8 9 15 16 22 34 35 42 43 48 49 
 53 55 59 60 61 62 74 75 81 
 13 
 4 6 15 22 26 34 40 47 55 57 65 73 
 78 
 68 
 1 3 5 6 7 8 9 10 13 14 15 16 
 17 18 19 21 22 23 25 26 27 28 29 30 
 31 32 33 34 35 36 37 38 39 40 42 43 
 44 45 46 48 49 50 51 52 54 55 56 57 
 58 59 60 61 62 63 64 67 68 69 70 72 
 73 77 78 79 80 81 82 83 
 14 
 2 4 6 7 16 22 23 39 42 43 46 63 
 73 80 
 57 
 1 2 4 5 7 9 10 11 12 13 14 16 
 17 20 22 23 24 26 27 29 30 31 32 33 
 34 35 36 37 38 39 41 43 44 45 46 47 
 48 50 51 53 57 59 67 68 69 70 71 72 
 73 74 76 77 78 79 80 81 82 
 82 
 1 2 4 5 6 7 8 9 10 11 12 13 
 14 15 16 17 18 19 20 21 22 23 24 25 
 26 27 28 29 30 31 32 33 34 35 36 37 
 38 39 40 41 42 43 44 45 46 47 48 49 
 50 51 52 53 54 55 56 57 58 59 60 61 
 62 63 64 65 66 67 68 69 70 71 72 73 
 74 75 76 77 78 79 80 81 82 83 
 52 
 2 3 7 8 10 11 12 13 14 15 16 17 
 18 19 20 24 25 26 27 28 30 31 32 33 
 34 35 36 41 44 46 49 50 52 53 54 55 
 58 63 64 65 66 67 71 72 73 74 75 76 
 77 79 82 83 
 65 
 1 2 3 4 5 6 7 8 9 10 12 13 
 14 15 16 18 21 22 23 25 26 27 28 29 
 30 31 32 33 36 37 38 40 42 43 44 45 
 46 47 48 49 50 51 52 53 54 56 57 60 
 61 62 64 65 66 67 68 69 71 72 73 74 
 75 76 79 80 83 
 69 
 1 2 3 4 6 7 8 10 12 13 14 15 
 19 20 21 23 24 25 26 27 28 29 30 31 
 32 33 34 35 36 37 38 39 40 41 42 44 
 45 46 47 48 49 51 52 53 54 56 57 58 
 61 62 63 64 66 67 68 69 71 72 73 74 
 75 76 77 78 79 80 81 82 83 
 29 
 7 9 11 14 17 18 20 24 25 27 30 33 
 36 37 40 42 43 52 53 55 57 59 61 66 
 67 70 73 74 76 
 67 
 3 5 6 7 8 9 10 12 13 14 15 16 
 17 18 19 20 21 22 23 24 25 26 27 28 
 30 31 32 34 35 36 37 38 39 40 41 42 
 44 45 47 48 49 50 51 53 54 55 57 59 
 60 61 62 64 65 66 67 68 69 70 73 74 
 75 76 77 78 79 81 82 
 83 
 1 2 3 4 5 6 7 8 9 10 11 12 
 13 14 15 16 17 18 19 20 21 22 23 24 
 25 26 27 28 29 30 31 32 33 34 35 36 
 37 38 39 40 41 42 43 44 45 46 47 48 
 49 50 51 52 53 54 55 56 57 58 59 60 
 61 62 63 64 65 66 67 68 69 70 71 72 
 73 74 75 76 77 78 79 80 81 82 83 
 74 
 1 2 3 4 5 6 7 8 9 10 11 13 
 14 15 16 17 18 19 20 22 23 24 25 26 
 27 28 29 30 32 33 34 35 36 38 39 40 
 41 43 44 45 46 47 49 50 52 54 55 56 
 57 58 59 60 61 62 63 64 65 66 67 68 
 69 70 71 72 73 74 76 77 78 79 80 81 
 82 83 
 20 
 2 4 16 26 31 32 33 34 35 38 47 50 
 57 61 65 71 72 75 77 78 
 12 
 11 15 21 24 27 31 42 64 65 73 78 81 
 42 
 4 6 8 9 10 16 17 19 20 22 24 25 
 31 32 33 36 37 38 39 40 42 43 44 45 
 47 50 54 56 57 60 64 65 66 68 71 72 
 73 74 76 80 81 83 
 42 
 2 6 8 9 11 12 14 16 18 19 20 22 
 24 27 30 31 34 37 38 40 46 48 50 51 
 52 53 54 55 56 63 68 70 72 73 74 75 
 76 77 78 79 80 83 
 73 
 1 2 3 4 6 7 8 9 10 11 12 13 
 14 15 16 17 18 19 20 21 22 23 24 25 
 27 28 29 32 33 34 35 36 39 40 41 42 
 43 44 45 46 47 48 49 50 51 52 53 54 
 55 57 58 60 61 62 63 65 66 67 68 69 
 70 72 73 74 75 76 77 78 79 80 81 82 
 83 
 35 
 1 5 7 8 11 13 14 17 18 20 21 24 
 25 26 35 36 42 43 45 47 48 52 53 55 
 57 65 66 68 71 73 76 77 80 81 82 
 46 
 4 5 6 7 8 9 10 13 14 18 19 20 
 22 23 27 30 31 32 33 34 35 37 39 40 
 42 44 45 46 48 49 50 51 53 58 59 61 
 63 64 65 68 73 76 77 78 80 83 
 33 
 2 4 5 8 14 17 25 27 28 34 37 38 
 39 40 41 42 43 44 48 49 52 58 59 60 
 64 65 69 70 73 74 76 77 80 
 7 
 4 39 44 53 56 57 77 
 58 
 1 3 4 5 7 8 10 11 12 13 14 15 
 16 17 18 19 20 22 23 24 25 26 27 28 
 31 33 34 35 36 37 38 39 42 44 45 46 
 48 49 52 54 55 56 57 58 59 60 63 65 
 67 68 69 70 72 74 75 77 78 83 
 60 
 2 3 4 5 6 9 10 12 13 14 15 16 
 18 19 20 21 22 23 24 25 26 27 28 31 
 32 33 34 36 37 38 39 42 44 45 46 48 
 49 50 52 54 55 58 59 60 62 63 64 65 
 67 68 69 70 72 73 75 76 77 79 81 83 
 62 
 2 4 5 8 9 10 11 12 15 16 18 20 
 21 22 23 24 25 26 27 28 29 31 32 33 
 34 35 37 38 39 43 44 45 46 47 48 49 
 51 52 54 57 58 59 60 61 62 64 65 66 
 67 68 69 70 71 72 73 74 75 77 78 81 
 82 83 
 20 
 3 16 21 25 28 29 40 41 42 45 51 52 
 61 62 63 64 68 74 76 77 
 70 
 1 3 4 5 6 7 8 9 11 13 14 15 
 16 17 18 19 20 21 22 23 24 25 26 28 
 30 32 33 34 35 36 37 38 39 40 41 42 
 43 45 46 48 49 50 51 52 53 54 55 56 
 57 58 59 60 61 63 64 65 68 69 70 71 
 72 73 75 77 78 79 80 81 82 83 
 13 
 7 13 16 26 35 39 56 63 65 66 69 70 
 76 
 35 
 3 4 10 12 13 14 16 19 21 22 24 25 
 26 30 34 40 42 43 44 45 46 53 58 60 
 62 65 66 68 69 71 73 74 79 81 82 
 80 
 1 2 3 4 5 6 7 8 9 10 11 12 
 13 14 15 16 17 18 19 21 22 23 24 25 
 26 27 28 29 30 31 32 33 34 35 36 37 
 38 40 41 42 43 44 45 46 47 48 49 50 
 51 52 53 54 55 56 57 58 59 60 61 62 
 63 64 65 66 67 68 69 70 71 72 73 74 
 75 76 77 78 79 80 81 83 
 80 
 1 2 3 4 5 6 7 8 9 10 11 12 
 13 14 15 16 17 18 19 20 21 22 23 24 
 25 26 27 28 29 30 31 32 33 34 35 36 
 37 38 39 40 41 42 43 44 45 46 47 48 
 49 50 52 53 54 55 56 57 59 60 61 62 
 63 64 65 66 67 68 69 70 71 72 74 75 
 76 77 78 79 80 81 82 83 
 71 
 1 4 5 6 8 9 10 11 12 13 14 15 
 16 17 18 19 20 22 23 24 25 26 27 28 
 29 30 31 32 33 34 35 36 37 38 39 40 
 41 42 43 44 45 46 49 50 51 52 53 54 
 55 57 60 61 63 65 66 67 68 70 71 72 
 73 74 75 76 77 78 79 80 81 82 83 
 65 
 1 2 3 4 5 6 8 13 14 16 17 18 
 19 20 21 22 23 25 28 30 31 32 33 34 
 36 37 38 39 40 41 42 43 45 46 47 48 
 49 50 52 53 54 56 57 58 59 61 62 63 
 64 65 67 68 69 70 71 72 73 74 75 76 
 77 78 79 82 83 
 15 
 3 4 12 13 15 16 17 20 23 53 55 57 
 64 66 78 
 59 
 1 2 4 5 6 7 8 11 12 13 17 18 
 20 21 22 23 24 25 26 27 28 29 33 35 
 37 38 40 41 44 45 46 47 48 49 50 51 
 52 55 56 59 61 62 64 66 67 68 69 71 
 72 73 74 75 77 78 79 80 81 82 83 
 62 
 1 2 3 4 6 7 8 9 10 11 12 13 
 14 15 16 18 19 20 23 25 26 27 28 30 
 31 32 33 34 36 37 38 39 41 43 44 45 
 46 47 48 50 51 54 58 59 60 62 63 64 
 65 67 68 69 71 73 74 75 77 79 80 81 
 82 83 
 25 
 1 4 8 9 12 17 18 31 33 38 48 51 
 52 54 55 56 59 64 67 72 73 75 80 81 
 83 
 67 
 1 2 3 4 5 7 9 10 11 12 13 14 
 15 16 18 19 20 21 22 23 24 25 26 27 
 28 29 30 31 32 34 35 36 37 38 39 40 
 41 42 44 45 46 47 50 51 53 54 56 57 
 58 59 60 61 63 64 65 66 67 69 70 72 
 73 74 75 76 78 79 80 
 80 
 1 2 3 4 5 6 7 8 9 10 11 12 
 13 14 15 17 18 19 20 21 22 23 24 25 
 26 27 28 29 30 31 32 33 34 35 36 37 
 38 40 41 42 43 44 45 46 47 48 49 50 
 51 52 54 55 56 57 58 59 60 61 62 63 
 64 65 66 67 68 69 70 71 72 73 74 75 
 76 77 78 79 80 81 82 83 
 35 
 1 4 9 11 12 13 15 18 23 30 33 34 
 37 38 39 40 44 46 48 50 52 53 58 62 
 63 64 65 66 67 71 74 77 79 80 83 
 39 
 1 4 5 10 11 12 13 16 17 18 19 25 
 26 29 30 31 32 34 40 44 45 46 48 49 
 54 55 56 57 58 59 62 67 71 74 75 76 
 77 80 83 
 65 
 1 2 3 4 5 6 7 8 9 10 11 12 
 13 14 15 16 17 18 19 20 22 23 24 25 
 26 28 30 32 33 35 36 37 38 39 40 41 
 44 45 46 47 48 49 50 51 52 53 56 57 
 58 61 62 63 64 68 70 71 72 73 74 75 
 76 78 80 81 83 
 46 
 1 3 5 6 7 8 10 11 15 16 20 21 
 23 24 25 28 30 34 36 37 39 41 42 43 
 44 46 48 49 52 54 57 60 61 62 63 64 
 67 68 70 71 72 75 76 77 78 80 
 32 
 4 5 11 15 18 20 21 23 24 25 31 35 
 39 40 44 56 58 59 60 61 62 64 65 69 
 72 73 74 75 76 77 81 82 
 66 
 1 2 3 5 7 8 9 10 11 12 13 14 
 15 16 17 18 19 20 21 22 23 24 26 27 
 31 32 33 34 36 37 39 40 41 42 43 44 
 45 47 49 50 51 52 53 54 55 57 58 59 
 60 61 62 63 64 65 66 67 68 70 71 72 
 75 76 77 78 80 83 
 35 
 1 6 8 9 15 17 19 21 22 24 26 30 
 31 41 42 43 44 45 47 48 51 53 54 55 
 57 58 59 60 61 62 64 68 72 75 83 
 4 
 17 50 65 67 
 23 
 1 7 11 13 21 26 27 34 35 38 44 46 
 50 52 60 64 65 66 69 70 71 78 83 
 43 
 3 4 6 7 8 9 11 12 13 14 15 22 
 23 24 27 30 32 33 34 37 39 41 42 43 
 46 47 48 50 51 55 57 58 59 63 64 65 
 67 68 72 75 76 77 79 
 7 
 10 11 19 20 35 56 58 
 59 
 2 3 5 6 8 9 11 12 14 16 17 18 
 19 20 21 22 23 24 25 27 28 30 31 33 
 34 35 36 37 38 40 42 44 46 47 48 52 
 53 54 55 56 57 58 59 60 61 63 67 68 
 70 71 72 73 74 76 77 78 80 81 83 
 21 
 1 2 3 9 17 22 31 35 41 42 43 44 
 46 47 50 60 62 68 71 72 74 
 36 
 4 6 8 9 11 14 16 18 19 22 25 27 
 30 34 42 44 46 49 51 52 58 61 62 63 
 66 67 68 71 72 73 76 78 80 81 82 83 
 10 
 1 3 26 32 47 57 58 62 67 74 
 10 
 10 11 39 40 46 49 58 66 68 77 
 16 
 4 7 12 15 28 33 34 42 44 45 47 52 
 70 73 74 79 
 78 
 1 2 3 4 5 6 7 8 9 10 11 12 
 13 14 15 16 17 18 19 20 21 22 23 24 
 25 26 27 28 29 30 31 32 34 35 36 37 
 38 39 41 42 44 45 46 47 48 49 50 51 
 53 54 55 56 57 58 59 60 61 62 63 64 
 65 66 67 68 69 70 71 72 74 75 76 77 
 78 79 80 81 82 83 
 9 
 8 13 17 33 35 40 58 71 80 
 32 
 1 3 6 7 8 11 12 14 15 19 20 21 
 22 24 25 26 30 32 34 38 41 44 46 54 
 58 60 61 62 63 79 81 82 
 7 
 4 15 22 33 43 46 52 
 25 
 5 9 12 13 15 16 19 22 34 36 38 39 
 48 49 54 55 56 57 68 71 74 75 76 81 
 82 
 39 
 8 9 11 12 15 18 20 23 27 32 33 36 
 38 39 40 43 44 45 46 47 49 50 51 52 
 55 56 57 59 62 64 66 69 71 73 74 75 
 79 80 83 
 43 
 2 3 4 5 11 12 13 14 16 18 19 21 
 25 26 28 29 31 32 33 34 37 43 47 51 
 52 54 55 57 59 60 62 64 65 68 69 70 
 73 75 77 78 79 82 83 
 8 
 25 40 43 47 48 57 66 79 
 3 
 9 72 83 
 77 
 1 2 3 4 5 6 7 8 9 10 11 13 
 14 15 16 17 18 19 21 22 23 24 25 26 
 27 28 29 30 31 32 33 34 36 37 38 39 
 40 41 42 43 44 45 46 47 48 49 50 51 
 52 53 54 55 56 57 58 59 60 61 62 63 
 64 65 66 67 68 69 70 71 72 74 75 76 
 79 80 81 82 83 
 29 
 2 3 18 20 30 33 34 36 37 41 46 48 
 50 53 54 56 61 62 66 68 69 70 74 75 
 76 78 80 81 83 
 67 
 1 2 3 4 5 6 10 11 13 14 15 16 
 18 19 20 21 22 23 24 26 27 28 29 31 
 35 36 37 38 39 41 42 43 44 45 46 47 
 48 49 50 51 52 53 54 55 56 58 59 60 
 61 62 63 64 65 66 67 69 70 71 72 73 
 75 76 77 79 80 81 82 
 